15
2 0 4
3 0 4
3 1 1
4 0 5
4 1 5
4 2 3
5 0 4
5 1 3
5 2 4
5 3 3
6 0 5
6 4 5
7 0 4
7 2 2
7 3 4
7 4 5
7 5 5
7 6 5
8 0 2
8 2 3
8 3 1
8 5 5
8 6 2
9 1 1
9 4 5
10 3 3
10 5 2
10 6 3
10 8 4
11 0 1
11 1 5
11 3 4
11 4 1
11 5 1
12 1 3
12 4 5
12 8 1
13 1 5
13 2 4
13 3 4
13 4 3
13 6 3
13 8 5
13 9 1
13 12 5
14 3 3
14 8 3
14 12 1
14 13 2
